p cnf 545 1399
c uncontrollable inputs:
a 1 2 5 6 9 11 13 0
c state variables:
a 16 17 18 19 20 21 22 23 24 25 26 27 28 29 30 31 32 33 34 35 36 37 38 39 40 41 42 43 44 45 46 0
c next state variables:
a 47 48 49 50 51 52 53 54 55 56 57 58 59 60 61 62 63 64 65 66 67 68 69 70 71 72 73 74 75 76 77 0
c controllable inputs
d 3 1 2 5 6 9 11 13 16 17 18 19 20 21 22 23 24 25 26 27 28 29 30 31 32 33 34 35 36 37 38 39 40 41 42 43 44 45 46 0
d 4 1 2 5 6 9 11 13 16 17 18 19 20 21 22 23 24 25 26 27 28 29 30 31 32 33 34 35 36 37 38 39 40 41 42 43 44 45 46 0
d 7 1 2 5 6 9 11 13 16 17 18 19 20 21 22 23 24 25 26 27 28 29 30 31 32 33 34 35 36 37 38 39 40 41 42 43 44 45 46 0
d 8 1 2 5 6 9 11 13 16 17 18 19 20 21 22 23 24 25 26 27 28 29 30 31 32 33 34 35 36 37 38 39 40 41 42 43 44 45 46 0
d 10 1 2 5 6 9 11 13 16 17 18 19 20 21 22 23 24 25 26 27 28 29 30 31 32 33 34 35 36 37 38 39 40 41 42 43 44 45 46 0
d 12 1 2 5 6 9 11 13 16 17 18 19 20 21 22 23 24 25 26 27 28 29 30 31 32 33 34 35 36 37 38 39 40 41 42 43 44 45 46 0
d 14 1 2 5 6 9 11 13 16 17 18 19 20 21 22 23 24 25 26 27 28 29 30 31 32 33 34 35 36 37 38 39 40 41 42 43 44 45 46 0
d 15 1 2 5 6 9 11 13 16 17 18 19 20 21 22 23 24 25 26 27 28 29 30 31 32 33 34 35 36 37 38 39 40 41 42 43 44 45 46 0
c winning region (state)
d 78 16 17 18 19 20 21 22 23 24 25 26 27 28 29 30 31 32 33 34 35 36 37 38 39 40 41 42 43 44 45 46 0
c winning region (next state)
d 79 47 48 49 50 51 52 53 54 55 56 57 58 59 60 61 62 63 64 65 66 67 68 69 70 71 72 73 74 75 76 77 0
c tseitin variables
e 80 81 82 83 84 85 86 87 88 89 90 91 92 93 94 95 96 97 98 99 100 101 102 103 104 105 106 107 108 109 110 111 112 113 114 115 116 117 118 119 120 121 122 123 124 125 126 127 128 129 130 131 132 133 134 135 136 137 138 139 140 141 142 143 144 145 146 147 148 149 150 151 152 153 154 155 156 157 158 159 160 161 162 163 164 165 166 167 168 169 170 171 172 173 174 175 176 177 178 179 180 181 182 183 184 185 186 187 188 189 190 191 192 193 194 195 196 197 198 199 200 201 202 203 204 205 206 207 208 209 210 211 212 213 214 215 216 217 218 219 220 221 222 223 224 225 226 227 228 229 230 231 232 233 234 235 236 237 238 239 240 241 242 243 244 245 246 247 248 249 250 251 252 253 254 255 256 257 258 259 260 261 262 263 264 265 266 267 268 269 270 271 272 273 274 275 276 277 278 279 280 281 282 283 284 285 286 287 288 289 290 291 292 293 294 295 296 297 298 299 300 301 302 303 304 305 306 307 308 309 310 311 312 313 314 315 316 317 318 319 320 321 322 323 324 325 326 327 328 329 330 331 332 333 334 335 336 337 338 339 340 341 342 343 344 345 346 347 348 349 350 351 352 353 354 355 356 357 358 359 360 361 362 363 364 365 366 367 368 369 370 371 372 373 374 375 376 377 378 379 380 381 382 383 384 385 386 387 388 389 390 391 392 393 394 395 396 397 398 399 400 401 402 403 404 405 406 407 408 409 410 411 412 413 414 415 416 417 418 419 420 421 422 423 424 425 426 427 428 429 430 431 432 433 434 435 436 437 438 439 440 441 442 443 444 445 446 447 448 449 450 451 452 453 454 455 456 457 458 459 460 461 462 463 464 465 466 467 468 469 470 471 472 473 474 475 476 477 478 479 480 481 482 483 484 485 486 487 488 489 490 491 492 493 494 495 496 497 498 499 500 501 502 503 504 505 506 507 508 509 510 511 512 513 514 515 516 517 518 519 520 521 522 523 524 525 526 527 528 529 530 531 532 533 534 535 536 537 538 539 540 541 542 543 544 545 0
c clauses:
-80 -47 0
-80 16 0
80 47 -16 0
-81 47 0
-81 -16 0
81 -47 16 0
-82 -80 0
-82 -81 0
82 80 81 0
-83 -48 0
-83 17 0
83 48 -17 0
-84 48 0
-84 -17 0
84 -48 17 0
-85 -83 0
-85 -84 0
85 83 84 0
-86 82 0
-86 85 0
86 -82 -85 0
-87 -49 0
-87 18 0
87 49 -18 0
-88 49 0
-88 -18 0
88 -49 18 0
-89 -87 0
-89 -88 0
89 87 88 0
-90 -50 0
-90 19 0
90 50 -19 0
-91 50 0
-91 -19 0
91 -50 19 0
-92 -90 0
-92 -91 0
92 90 91 0
-93 89 0
-93 92 0
93 -89 -92 0
-94 86 0
-94 93 0
94 -86 -93 0
-95 -51 0
-95 20 0
95 51 -20 0
-96 51 0
-96 -20 0
96 -51 20 0
-97 -95 0
-97 -96 0
97 95 96 0
-98 -52 0
-98 21 0
98 52 -21 0
-99 52 0
-99 -21 0
99 -52 21 0
-100 -98 0
-100 -99 0
100 98 99 0
-101 97 0
-101 100 0
101 -97 -100 0
-102 -53 0
-102 22 0
102 53 -22 0
-103 53 0
-103 -22 0
103 -53 22 0
-104 -102 0
-104 -103 0
104 102 103 0
-105 -54 0
-105 23 0
105 54 -23 0
-106 54 0
-106 -23 0
106 -54 23 0
-107 -105 0
-107 -106 0
107 105 106 0
-108 104 0
-108 107 0
108 -104 -107 0
-109 101 0
-109 108 0
109 -101 -108 0
-110 94 0
-110 109 0
110 -94 -109 0
-111 -55 0
-111 24 0
111 55 -24 0
-112 55 0
-112 -24 0
112 -55 24 0
-113 -111 0
-113 -112 0
113 111 112 0
-114 -56 0
-114 25 0
114 56 -25 0
-115 56 0
-115 -25 0
115 -56 25 0
-116 -114 0
-116 -115 0
116 114 115 0
-117 113 0
-117 116 0
117 -113 -116 0
-118 -57 0
-118 26 0
118 57 -26 0
-119 57 0
-119 -26 0
119 -57 26 0
-120 -118 0
-120 -119 0
120 118 119 0
-121 -58 0
-121 27 0
121 58 -27 0
-122 58 0
-122 -27 0
122 -58 27 0
-123 -121 0
-123 -122 0
123 121 122 0
-124 120 0
-124 123 0
124 -120 -123 0
-125 117 0
-125 124 0
125 -117 -124 0
-126 -59 0
-126 28 0
126 59 -28 0
-127 59 0
-127 -28 0
127 -59 28 0
-128 -126 0
-128 -127 0
128 126 127 0
-129 -60 0
-129 29 0
129 60 -29 0
-130 60 0
-130 -29 0
130 -60 29 0
-131 -129 0
-131 -130 0
131 129 130 0
-132 128 0
-132 131 0
132 -128 -131 0
-133 -61 0
-133 30 0
133 61 -30 0
-134 61 0
-134 -30 0
134 -61 30 0
-135 -133 0
-135 -134 0
135 133 134 0
-136 -62 0
-136 31 0
136 62 -31 0
-137 62 0
-137 -31 0
137 -62 31 0
-138 -136 0
-138 -137 0
138 136 137 0
-139 135 0
-139 138 0
139 -135 -138 0
-140 132 0
-140 139 0
140 -132 -139 0
-141 125 0
-141 140 0
141 -125 -140 0
-142 110 0
-142 141 0
142 -110 -141 0
-143 -63 0
-143 32 0
143 63 -32 0
-144 63 0
-144 -32 0
144 -63 32 0
-145 -143 0
-145 -144 0
145 143 144 0
-146 -64 0
-146 33 0
146 64 -33 0
-147 64 0
-147 -33 0
147 -64 33 0
-148 -146 0
-148 -147 0
148 146 147 0
-149 145 0
-149 148 0
149 -145 -148 0
-150 -65 0
-150 34 0
150 65 -34 0
-151 65 0
-151 -34 0
151 -65 34 0
-152 -150 0
-152 -151 0
152 150 151 0
-153 -66 0
-153 35 0
153 66 -35 0
-154 66 0
-154 -35 0
154 -66 35 0
-155 -153 0
-155 -154 0
155 153 154 0
-156 152 0
-156 155 0
156 -152 -155 0
-157 149 0
-157 156 0
157 -149 -156 0
-158 -67 0
-158 36 0
158 67 -36 0
-159 67 0
-159 -36 0
159 -67 36 0
-160 -158 0
-160 -159 0
160 158 159 0
-161 -68 0
-161 37 0
161 68 -37 0
-162 68 0
-162 -37 0
162 -68 37 0
-163 -161 0
-163 -162 0
163 161 162 0
-164 160 0
-164 163 0
164 -160 -163 0
-165 -69 0
-165 38 0
165 69 -38 0
-166 69 0
-166 -38 0
166 -69 38 0
-167 -165 0
-167 -166 0
167 165 166 0
-168 -70 0
-168 39 0
168 70 -39 0
-169 70 0
-169 -39 0
169 -70 39 0
-170 -168 0
-170 -169 0
170 168 169 0
-171 167 0
-171 170 0
171 -167 -170 0
-172 164 0
-172 171 0
172 -164 -171 0
-173 157 0
-173 172 0
173 -157 -172 0
-174 -71 0
-174 40 0
174 71 -40 0
-175 71 0
-175 -40 0
175 -71 40 0
-176 -174 0
-176 -175 0
176 174 175 0
-177 -72 0
-177 41 0
177 72 -41 0
-178 72 0
-178 -41 0
178 -72 41 0
-179 -177 0
-179 -178 0
179 177 178 0
-180 176 0
-180 179 0
180 -176 -179 0
-181 -73 0
-181 42 0
181 73 -42 0
-182 73 0
-182 -42 0
182 -73 42 0
-183 -181 0
-183 -182 0
183 181 182 0
-184 -74 0
-184 43 0
184 74 -43 0
-185 74 0
-185 -43 0
185 -74 43 0
-186 -184 0
-186 -185 0
186 184 185 0
-187 183 0
-187 186 0
187 -183 -186 0
-188 180 0
-188 187 0
188 -180 -187 0
-189 -77 0
-189 46 0
189 77 -46 0
-190 77 0
-190 -46 0
190 -77 46 0
-191 -189 0
-191 -190 0
191 189 190 0
-192 -75 0
-192 44 0
192 75 -44 0
-193 75 0
-193 -44 0
193 -75 44 0
-194 -192 0
-194 -193 0
194 192 193 0
-195 -76 0
-195 45 0
195 76 -45 0
-196 76 0
-196 -45 0
196 -76 45 0
-197 -195 0
-197 -196 0
197 195 196 0
-198 194 0
-198 197 0
198 -194 -197 0
-199 191 0
-199 198 0
199 -191 -198 0
-200 188 0
-200 199 0
200 -188 -199 0
-201 173 0
-201 200 0
201 -173 -200 0
-202 142 0
-202 201 0
202 -142 -201 0
-203 79 0
-203 -78 0
203 -79 78 0
-204 -79 0
-204 78 0
204 79 -78 0
-205 -203 0
-205 -204 0
205 203 204 0
-206 202 0
-206 -205 0
206 -202 205 0
-207 30 0
-207 16 0
207 -30 -16 0
-208 -17 0
-208 207 0
208 17 -207 0
-209 -8 0
-209 2 0
209 8 -2 0
-210 21 0
-210 16 0
210 -21 -16 0
-211 209 0
-211 -210 0
211 -209 210 0
-212 8 0
-212 1 0
212 -8 -1 0
-213 45 0
-213 16 0
213 -45 -16 0
-214 212 0
-214 -213 0
214 -212 213 0
-215 24 0
-215 16 0
215 -24 -16 0
-216 22 0
-216 16 0
216 -22 -16 0
-217 18 0
-217 16 0
217 -18 -16 0
-218 -216 0
-218 -217 0
218 216 217 0
-219 -215 0
-219 218 0
219 215 -218 0
-220 29 0
-220 16 0
220 -29 -16 0
-221 -219 0
-221 -220 0
221 219 220 0
-222 -221 0
-222 -208 0
222 221 208 0
-223 -214 0
-223 222 0
223 214 -222 0
-224 -211 0
-224 223 0
224 211 -223 0
-225 -208 0
-225 -224 0
225 208 224 0
-226 -48 0
-226 225 0
226 48 -225 0
-227 48 0
-227 -225 0
227 -48 225 0
-228 -226 0
-228 -227 0
228 226 227 0
-229 47 0
-229 228 0
229 -47 -228 0
-230 -4 0
-230 3 0
230 4 -3 0
-231 -6 0
-231 230 0
231 6 -230 0
-232 219 0
-232 231 0
232 -219 -231 0
-233 5 0
-233 232 0
233 -5 -232 0
-234 -13 0
-234 233 0
234 13 -233 0
-235 -22 0
-235 217 0
235 22 -217 0
-236 -215 0
-236 235 0
236 215 -235 0
-237 13 0
-237 236 0
237 -13 -236 0
-238 -18 0
-238 216 0
238 18 -216 0
-239 -215 0
-239 238 0
239 215 -238 0
-240 13 0
-240 239 0
240 -13 -239 0
-241 18 0
-241 216 0
241 -18 -216 0
-242 -215 0
-242 241 0
242 215 -241 0
-243 13 0
-243 242 0
243 -13 -242 0
-244 217 0
-244 -243 0
244 -217 243 0
-245 -240 0
-245 -244 0
245 240 244 0
-246 -237 0
-246 -245 0
246 237 245 0
-247 -234 0
-247 -246 0
247 234 246 0
-248 -49 0
-248 -247 0
248 49 247 0
-249 49 0
-249 247 0
249 -49 -247 0
-250 -248 0
-250 -249 0
250 248 249 0
-251 19 0
-251 16 0
251 -19 -16 0
-252 -13 0
-252 -251 0
252 13 251 0
-253 34 0
-253 16 0
253 -34 -16 0
-254 -32 0
-254 253 0
254 32 -253 0
-255 -252 0
-255 254 0
255 252 -254 0
-256 -224 0
-256 255 0
256 224 -255 0
-257 -50 0
-257 256 0
257 50 -256 0
-258 50 0
-258 -256 0
258 -50 256 0
-259 -257 0
-259 -258 0
259 257 258 0
-260 250 0
-260 259 0
260 -250 -259 0
-261 229 0
-261 260 0
261 -229 -260 0
-262 -51 0
-262 7 0
262 51 -7 0
-263 51 0
-263 -7 0
263 -51 7 0
-264 -262 0
-264 -263 0
264 262 263 0
-265 -211 0
-265 -223 0
265 211 223 0
-266 -52 0
-266 265 0
266 52 -265 0
-267 52 0
-267 -265 0
267 -52 265 0
-268 -266 0
-268 -267 0
268 266 267 0
-269 264 0
-269 268 0
269 -264 -268 0
-270 13 0
-270 233 0
270 -13 -233 0
-271 216 0
-271 -243 0
271 -216 243 0
-272 -237 0
-272 -271 0
272 237 271 0
-273 -270 0
-273 272 0
273 270 -272 0
-274 -53 0
-274 -273 0
274 53 273 0
-275 53 0
-275 273 0
275 -53 -273 0
-276 -274 0
-276 -275 0
276 274 275 0
-277 -54 0
-277 14 0
277 54 -14 0
-278 54 0
-278 -14 0
278 -54 14 0
-279 -277 0
-279 -278 0
279 277 278 0
-280 276 0
-280 279 0
280 -276 -279 0
-281 269 0
-281 280 0
281 -269 -280 0
-282 261 0
-282 281 0
282 -261 -281 0
-283 13 0
-283 218 0
283 -13 -218 0
-284 215 0
-284 -283 0
284 -215 283 0
-285 -243 0
-285 -284 0
285 243 284 0
-286 -55 0
-286 -285 0
286 55 285 0
-287 55 0
-287 285 0
287 -55 -285 0
-288 -286 0
-288 -287 0
288 286 287 0
-289 -56 0
-289 1 0
289 56 -1 0
-290 56 0
-290 -1 0
290 -56 1 0
-291 -289 0
-291 -290 0
291 289 290 0
-292 288 0
-292 291 0
292 -288 -291 0
-293 -57 0
-293 12 0
293 57 -12 0
-294 57 0
-294 -12 0
294 -57 12 0
-295 -293 0
-295 -294 0
295 293 294 0
-296 -58 0
-296 4 0
296 58 -4 0
-297 58 0
-297 -4 0
297 -58 4 0
-298 -296 0
-298 -297 0
298 296 297 0
-299 295 0
-299 298 0
299 -295 -298 0
-300 292 0
-300 299 0
300 -292 -299 0
-301 -59 0
-301 2 0
301 59 -2 0
-302 59 0
-302 -2 0
302 -59 2 0
-303 -301 0
-303 -302 0
303 301 302 0
-304 -221 0
-304 -224 0
304 221 224 0
-305 -60 0
-305 304 0
305 60 -304 0
-306 60 0
-306 -304 0
306 -60 304 0
-307 -305 0
-307 -306 0
307 305 306 0
-308 303 0
-308 307 0
308 -303 -307 0
-309 -5 0
-309 231 0
309 5 -231 0
-310 -207 0
-310 309 0
310 207 -309 0
-311 12 0
-311 207 0
311 -12 -207 0
-312 -310 0
-312 -311 0
312 310 311 0
-313 -61 0
-313 -312 0
313 61 312 0
-314 61 0
-314 312 0
314 -61 -312 0
-315 -313 0
-315 -314 0
315 313 314 0
-316 31 0
-316 16 0
316 -31 -16 0
-317 10 0
-317 -316 0
317 -10 316 0
318 -2 0
318 -317 0
-318 2 317 0
-319 -62 0
-319 -318 0
319 62 318 0
-320 62 0
-320 318 0
320 -62 -318 0
-321 -319 0
-321 -320 0
321 319 320 0
-322 315 0
-322 321 0
322 -315 -321 0
-323 308 0
-323 322 0
323 -308 -322 0
-324 300 0
-324 323 0
324 -300 -323 0
-325 282 0
-325 324 0
325 -282 -324 0
-326 252 0
-326 -254 0
326 -252 254 0
-327 -224 0
-327 326 0
327 224 -326 0
-328 -63 0
-328 327 0
328 63 -327 0
-329 63 0
-329 -327 0
329 -63 327 0
-330 -328 0
-330 -329 0
330 328 329 0
-331 -64 0
-331 15 0
331 64 -15 0
-332 64 0
-332 -15 0
332 -64 15 0
-333 -331 0
-333 -332 0
333 331 332 0
-334 330 0
-334 333 0
334 -330 -333 0
-335 3 0
-335 -253 0
335 -3 253 0
-336 -6 0
-336 335 0
336 6 -335 0
-337 -5 0
-337 336 0
337 5 -336 0
-338 12 0
-338 253 0
338 -12 -253 0
-339 -337 0
-339 -338 0
339 337 338 0
-340 -65 0
-340 -339 0
340 65 339 0
-341 65 0
-341 339 0
341 -65 -339 0
-342 -340 0
-342 -341 0
342 340 341 0
-343 -66 0
-343 3 0
343 66 -3 0
-344 66 0
-344 -3 0
344 -66 3 0
-345 -343 0
-345 -344 0
345 343 344 0
-346 342 0
-346 345 0
346 -342 -345 0
-347 334 0
-347 346 0
347 -334 -346 0
-348 -67 0
-348 11 0
348 67 -11 0
-349 67 0
-349 -11 0
349 -67 11 0
-350 -348 0
-350 -349 0
350 348 349 0
-351 37 0
-351 16 0
351 -37 -16 0
-352 -252 0
-352 -254 0
352 252 254 0
-353 351 0
-353 -352 0
353 -351 352 0
-354 -351 0
-354 352 0
354 351 -352 0
-355 -353 0
-355 -354 0
355 353 354 0
-356 -224 0
-356 -355 0
356 224 355 0
-357 -68 0
-357 356 0
357 68 -356 0
-358 68 0
-358 -356 0
358 -68 356 0
-359 -357 0
-359 -358 0
359 357 358 0
-360 350 0
-360 359 0
360 -350 -359 0
-361 -38 0
-361 351 0
361 38 -351 0
-362 352 0
-362 361 0
362 -352 -361 0
-363 38 0
-363 16 0
363 -38 -16 0
-364 37 0
-364 352 0
364 -37 -352 0
-365 363 0
-365 -364 0
365 -363 364 0
-366 -362 0
-366 -365 0
366 362 365 0
-367 -224 0
-367 -366 0
367 224 366 0
-368 -69 0
-368 367 0
368 69 -367 0
-369 69 0
-369 -367 0
369 -69 367 0
-370 -368 0
-370 -369 0
370 368 369 0
-371 39 0
-371 16 0
371 -39 -16 0
-372 371 0
-372 -352 0
372 -371 352 0
-373 38 0
-373 351 0
373 -38 -351 0
-374 371 0
-374 373 0
374 -371 -373 0
-375 -371 0
-375 -373 0
375 371 373 0
376 -374 0
376 -375 0
-376 374 375 0
-377 352 0
-377 -376 0
377 -352 376 0
-378 -372 0
-378 -377 0
378 372 377 0
-379 -224 0
-379 -378 0
379 224 378 0
-380 -70 0
-380 379 0
380 70 -379 0
-381 70 0
-381 -379 0
381 -70 379 0
-382 -380 0
-382 -381 0
382 380 381 0
-383 370 0
-383 382 0
383 -370 -382 0
-384 360 0
-384 383 0
384 -360 -383 0
-385 347 0
-385 384 0
385 -347 -384 0
-386 40 0
-386 16 0
386 -40 -16 0
-387 352 0
-387 374 0
387 -352 -374 0
-388 386 0
-388 -387 0
388 -386 387 0
-389 -386 0
-389 387 0
389 386 -387 0
-390 -388 0
-390 -389 0
390 388 389 0
-391 -224 0
-391 -390 0
391 224 390 0
-392 -71 0
-392 391 0
392 71 -391 0
-393 71 0
-393 -391 0
393 -71 391 0
-394 -392 0
-394 -393 0
394 392 393 0
-395 41 0
-395 16 0
395 -41 -16 0
-396 11 0
-396 -2 0
396 -11 2 0
-397 9 0
-397 -1 0
397 -9 1 0
-398 -396 0
-398 -397 0
398 396 397 0
-399 -395 0
-399 398 0
399 395 -398 0
-400 -72 0
-400 -399 0
400 72 399 0
-401 72 0
-401 399 0
401 -72 -399 0
-402 -400 0
-402 -401 0
402 400 401 0
-403 394 0
-403 402 0
403 -394 -402 0
-404 -73 0
-404 9 0
404 73 -9 0
-405 73 0
-405 -9 0
405 -73 9 0
-406 -404 0
-406 -405 0
406 404 405 0
-407 -74 0
-407 13 0
407 74 -13 0
-408 74 0
-408 -13 0
408 -74 13 0
-409 -407 0
-409 -408 0
409 407 408 0
-410 406 0
-410 409 0
410 -406 -409 0
-411 403 0
-411 410 0
411 -403 -410 0
-412 -77 0
-412 8 0
412 77 -8 0
-413 77 0
-413 -8 0
413 -77 8 0
-414 -412 0
-414 -413 0
414 412 413 0
-415 -75 0
-415 10 0
415 75 -10 0
-416 75 0
-416 -10 0
416 -75 10 0
-417 -415 0
-417 -416 0
417 415 416 0
-418 -214 0
-418 -224 0
418 214 224 0
-419 -76 0
-419 418 0
419 76 -418 0
-420 76 0
-420 -418 0
420 -76 418 0
-421 -419 0
-421 -420 0
421 419 420 0
-422 417 0
-422 421 0
422 -417 -421 0
-423 414 0
-423 422 0
423 -414 -422 0
-424 411 0
-424 423 0
424 -411 -423 0
-425 385 0
-425 424 0
425 -385 -424 0
-426 325 0
-426 425 0
426 -325 -425 0
-427 426 0
-427 204 0
427 -426 -204 0
-428 -28 0
-428 -25 0
428 28 25 0
429 16 0
429 -428 0
-429 -16 428 0
-430 23 0
-430 16 0
430 -23 -16 0
-431 429 0
-431 -430 0
431 -429 430 0
-432 15 0
-432 431 0
432 -15 -431 0
-433 -2 0
-433 316 0
433 2 -316 0
-434 10 0
-434 433 0
434 -10 -433 0
-435 36 0
-435 16 0
435 -36 -16 0
-436 -430 0
-436 -435 0
436 430 435 0
-437 10 0
-437 436 0
437 -10 -436 0
-438 7 0
-438 437 0
438 -7 -437 0
-439 -23 0
-439 435 0
439 23 -435 0
-440 10 0
-440 439 0
440 -10 -439 0
-441 -7 0
-441 440 0
441 7 -440 0
-442 42 0
-442 16 0
442 -42 -16 0
-443 -430 0
-443 -442 0
443 430 442 0
-444 -15 0
-444 443 0
444 15 -443 0
-445 7 0
-445 444 0
445 -7 -444 0
-446 -23 0
-446 442 0
446 23 -442 0
-447 -15 0
-447 446 0
447 15 -446 0
-448 -7 0
-448 447 0
448 7 -447 0
-449 12 0
-449 -2 0
449 -12 2 0
-450 -12 0
-450 2 0
450 12 -2 0
-451 -449 0
-451 -450 0
451 449 450 0
-452 8 0
-452 -451 0
452 -8 451 0
-453 12 0
-453 -1 0
453 -12 1 0
-454 -12 0
-454 1 0
454 12 -1 0
-455 -453 0
-455 -454 0
455 453 454 0
-456 -8 0
-456 -455 0
456 8 455 0
-457 -452 0
-457 -456 0
457 452 456 0
-458 43 0
-458 16 0
458 -43 -16 0
-459 458 0
-459 -207 0
459 -458 207 0
-460 219 0
-460 459 0
460 -219 -459 0
-461 -4 0
-461 -460 0
461 4 460 0
-462 457 0
-462 -461 0
462 -457 461 0
-463 20 0
-463 16 0
463 -20 -16 0
-464 3 0
-464 -463 0
464 -3 463 0
-465 -3 0
-465 463 0
465 3 -463 0
-466 -464 0
-466 -465 0
466 464 465 0
-467 44 0
-467 16 0
467 -44 -16 0
-468 -8 0
-468 467 0
468 8 -467 0
-469 8 0
-469 -467 0
469 -8 467 0
-470 -468 0
-470 -469 0
470 468 469 0
-471 33 0
-471 16 0
471 -33 -16 0
-472 8 0
-472 -471 0
472 -8 471 0
-473 -8 0
-473 471 0
473 8 -471 0
-474 -472 0
-474 -473 0
474 472 473 0
-475 470 0
-475 474 0
475 -470 -474 0
-476 466 0
-476 475 0
476 -466 -475 0
-477 458 0
-477 -476 0
477 -458 476 0
-478 462 0
-478 -477 0
478 -462 477 0
-479 35 0
-479 16 0
479 -35 -16 0
-480 -3 0
-480 479 0
480 3 -479 0
-481 3 0
-481 -479 0
481 -3 479 0
-482 -480 0
-482 -481 0
482 480 481 0
-483 46 0
-483 16 0
483 -46 -16 0
-484 8 0
-484 -483 0
484 -8 483 0
-485 -8 0
-485 483 0
485 8 -483 0
-486 -484 0
-486 -485 0
486 484 485 0
-487 482 0
-487 486 0
487 -482 -486 0
-488 4 0
-488 -487 0
488 -4 487 0
-489 478 0
-489 -488 0
489 -478 488 0
-490 -448 0
-490 489 0
490 448 -489 0
-491 -445 0
-491 490 0
491 445 -490 0
-492 -441 0
-492 491 0
492 441 -491 0
-493 -438 0
-493 492 0
493 438 -492 0
-494 7 0
-494 -463 0
494 -7 463 0
-495 -7 0
-495 463 0
495 7 -463 0
-496 -494 0
-496 -495 0
496 494 495 0
-497 10 0
-497 -467 0
497 -10 467 0
-498 -10 0
-498 467 0
498 10 -467 0
-499 -497 0
-499 -498 0
499 497 498 0
-500 -15 0
-500 471 0
500 15 -471 0
-501 15 0
-501 -471 0
501 -15 471 0
-502 -500 0
-502 -501 0
502 500 501 0
-503 499 0
-503 502 0
503 -499 -502 0
-504 496 0
-504 503 0
504 -496 -503 0
-505 430 0
-505 -504 0
505 -430 504 0
-506 493 0
-506 -505 0
506 -493 505 0
-507 -434 0
-507 506 0
507 434 -506 0
-508 -432 0
-508 507 0
508 432 -507 0
-509 -386 0
-509 508 0
509 386 -508 0
-510 -509 0
-510 399 0
510 509 -399 0
-511 78 0
-511 510 0
511 -78 -510 0
-512 -17 0
-512 -16 0
512 17 16 0
-513 -19 0
-513 -18 0
513 19 18 0
-514 512 0
-514 513 0
514 -512 -513 0
-515 -21 0
-515 -20 0
515 21 20 0
-516 -23 0
-516 -22 0
516 23 22 0
-517 515 0
-517 516 0
517 -515 -516 0
-518 514 0
-518 517 0
518 -514 -517 0
-519 -25 0
-519 -24 0
519 25 24 0
-520 -27 0
-520 -26 0
520 27 26 0
-521 519 0
-521 520 0
521 -519 -520 0
-522 -29 0
-522 -28 0
522 29 28 0
-523 -31 0
-523 -30 0
523 31 30 0
-524 522 0
-524 523 0
524 -522 -523 0
-525 521 0
-525 524 0
525 -521 -524 0
-526 518 0
-526 525 0
526 -518 -525 0
-527 -33 0
-527 -32 0
527 33 32 0
-528 -35 0
-528 -34 0
528 35 34 0
-529 527 0
-529 528 0
529 -527 -528 0
-530 -37 0
-530 -36 0
530 37 36 0
-531 -39 0
-531 -38 0
531 39 38 0
-532 530 0
-532 531 0
532 -530 -531 0
-533 529 0
-533 532 0
533 -529 -532 0
-534 -41 0
-534 -40 0
534 41 40 0
-535 -43 0
-535 -42 0
535 43 42 0
-536 534 0
-536 535 0
536 -534 -535 0
-537 -45 0
-537 -44 0
537 45 44 0
-538 -46 0
-538 537 0
538 46 -537 0
-539 536 0
-539 538 0
539 -536 -538 0
-540 533 0
-540 539 0
540 -533 -539 0
-541 526 0
-541 540 0
541 -526 -540 0
-542 -78 0
-542 541 0
542 78 -541 0
-543 -511 0
-543 -542 0
543 511 542 0
-544 -427 0
-544 543 0
544 427 -543 0
-545 -206 0
-545 544 0
545 206 -544 0
545 0
